HUN,8,6,820
4,23,3,27,5,28,1,11,2,6,0,8
2,5,3,23,1,12,0,1,4,7,5,28
2,19,5,19,0,12,4,27,1,14,3,9
3,23,2,19,1,25,0,2,5,26,4,28
2,27,0,4,1,11,3,2,4,20,5,3
2,23,4,2,5,4,1,22,3,13,0,4
3,18,4,27,2,16,5,6,0,29,1,13
2,9,0,5,4,26,5,1,1,12,3,1
